(set-info :smt-lib-version 2.6)
(set-logic QF_NIA)
(set-info :source |
Generated by: Cristina Borralleras, Daniel Larraz, Albert Oliveras, Enric Rodriguez-Carbonell, Albert Rubio
Generated on: 2017-04-27
Generator: VeryMax
Application: Termination proving
Target solver: barcelogic
|)
(set-info :license "https://creativecommons.org/licenses/by/4.0/")
(set-info :category "industrial")
(set-info :status sat)
(declare-fun Nl2arg11 () Int)
(declare-fun Nl2arg21 () Int)
(declare-fun Nl2arg31 () Int)
(declare-fun Nl2arg12 () Int)
(declare-fun Nl2arg22 () Int)
(declare-fun Nl2arg32 () Int)
(declare-fun Nl2arg13 () Int)
(declare-fun Nl2arg23 () Int)
(declare-fun Nl2arg33 () Int)
(declare-fun lam0n0 () Int)
(declare-fun lam0n1 () Int)
(declare-fun lam0n2 () Int)
(declare-fun lam0n3 () Int)
(declare-fun lam0n5 () Int)
(declare-fun lam0n6 () Int)
(declare-fun lam0n7 () Int)
(declare-fun Nl2CT1 () Int)
(declare-fun Nl2CT2 () Int)
(declare-fun Nl2CT3 () Int)
(declare-fun lam0n4 () Int)
(declare-fun lam1n0 () Int)
(declare-fun lam1n1 () Int)
(declare-fun lam1n2 () Int)
(declare-fun lam1n3 () Int)
(declare-fun lam1n5 () Int)
(declare-fun lam1n6 () Int)
(declare-fun lam1n7 () Int)
(declare-fun lam1n4 () Int)
(declare-fun lam2n0 () Int)
(declare-fun lam2n1 () Int)
(declare-fun lam2n2 () Int)
(declare-fun lam2n3 () Int)
(declare-fun lam2n5 () Int)
(declare-fun lam2n6 () Int)
(declare-fun lam2n7 () Int)
(declare-fun lam2n4 () Int)
(declare-fun lam3n0 () Int)
(declare-fun lam3n1 () Int)
(declare-fun lam3n2 () Int)
(declare-fun lam3n3 () Int)
(declare-fun lam3n5 () Int)
(declare-fun lam3n6 () Int)
(declare-fun lam3n7 () Int)
(declare-fun lam3n4 () Int)
(declare-fun lam4n0 () Int)
(declare-fun lam4n1 () Int)
(declare-fun lam4n2 () Int)
(declare-fun lam4n4 () Int)
(declare-fun lam4n5 () Int)
(declare-fun lam4n6 () Int)
(declare-fun lam4n3 () Int)
(declare-fun lam5n0 () Int)
(declare-fun lam5n1 () Int)
(declare-fun lam5n2 () Int)
(declare-fun lam5n4 () Int)
(declare-fun lam5n5 () Int)
(declare-fun lam5n6 () Int)
(declare-fun lam5n3 () Int)
(declare-fun lam6n0 () Int)
(declare-fun lam6n1 () Int)
(declare-fun lam6n2 () Int)
(declare-fun lam6n4 () Int)
(declare-fun lam6n5 () Int)
(declare-fun lam6n6 () Int)
(declare-fun lam6n3 () Int)
(declare-fun lam7n0 () Int)
(declare-fun lam7n1 () Int)
(declare-fun lam7n2 () Int)
(declare-fun lam7n4 () Int)
(declare-fun lam7n5 () Int)
(declare-fun lam7n6 () Int)
(declare-fun lam7n3 () Int)
(declare-fun lam8n0 () Int)
(declare-fun lam8n1 () Int)
(declare-fun lam8n2 () Int)
(declare-fun lam9n0 () Int)
(declare-fun lam9n1 () Int)
(declare-fun lam9n2 () Int)
(declare-fun lam10n0 () Int)
(declare-fun lam10n1 () Int)
(declare-fun lam10n2 () Int)
(declare-fun lam11n0 () Int)
(declare-fun lam11n1 () Int)
(declare-fun lam11n2 () Int)
(declare-fun lam11n3 () Int)
(declare-fun lam11n4 () Int)
(declare-fun lam12n0 () Int)
(declare-fun lam12n1 () Int)
(declare-fun lam12n2 () Int)
(declare-fun lam12n3 () Int)
(declare-fun lam12n4 () Int)
(declare-fun lam13n0 () Int)
(declare-fun lam13n1 () Int)
(declare-fun lam13n2 () Int)
(declare-fun lam13n3 () Int)
(declare-fun lam13n4 () Int)
(declare-fun undef13 () Int)
(declare-fun undef4 () Int)
(declare-fun undef14 () Int)
(declare-fun undef8 () Int)
(declare-fun undef7 () Int)
(declare-fun lam17n0 () Int)
(declare-fun lam17n1 () Int)
(declare-fun lam17n2 () Int)
(declare-fun lam17n3 () Int)
(declare-fun lam17n5 () Int)
(declare-fun lam17n6 () Int)
(declare-fun lam17n7 () Int)
(declare-fun RFN1_CT () Int)
(declare-fun RFN1_arg1 () Int)
(declare-fun RFN1_arg2 () Int)
(declare-fun RFN1_arg3 () Int)
(declare-fun lam17n4 () Int)
(declare-fun lam21n0 () Int)
(declare-fun lam21n1 () Int)
(declare-fun lam21n2 () Int)
(declare-fun lam21n4 () Int)
(declare-fun lam21n5 () Int)
(declare-fun lam21n6 () Int)
(declare-fun lam21n3 () Int)
(declare-fun lam15n0 () Int)
(declare-fun lam15n1 () Int)
(declare-fun lam15n2 () Int)
(declare-fun lam15n3 () Int)
(declare-fun lam15n5 () Int)
(declare-fun lam15n6 () Int)
(declare-fun lam15n7 () Int)
(declare-fun lam15n4 () Int)
(declare-fun lam16n0 () Int)
(declare-fun lam16n1 () Int)
(declare-fun lam16n2 () Int)
(declare-fun lam16n3 () Int)
(declare-fun lam16n5 () Int)
(declare-fun lam16n6 () Int)
(declare-fun lam16n7 () Int)
(declare-fun lam16n4 () Int)
(declare-fun lam19n0 () Int)
(declare-fun lam19n1 () Int)
(declare-fun lam19n2 () Int)
(declare-fun lam19n4 () Int)
(declare-fun lam19n5 () Int)
(declare-fun lam19n6 () Int)
(declare-fun lam19n3 () Int)
(declare-fun lam20n0 () Int)
(declare-fun lam20n1 () Int)
(declare-fun lam20n2 () Int)
(declare-fun lam20n4 () Int)
(declare-fun lam20n5 () Int)
(declare-fun lam20n6 () Int)
(declare-fun lam20n3 () Int)
(declare-fun lam14n0 () Int)
(declare-fun lam14n1 () Int)
(declare-fun lam14n2 () Int)
(declare-fun lam14n3 () Int)
(declare-fun lam14n5 () Int)
(declare-fun lam14n6 () Int)
(declare-fun lam14n7 () Int)
(declare-fun lam14n4 () Int)
(declare-fun lam18n0 () Int)
(declare-fun lam18n1 () Int)
(declare-fun lam18n2 () Int)
(declare-fun lam18n4 () Int)
(declare-fun lam18n5 () Int)
(declare-fun lam18n6 () Int)
(declare-fun lam18n3 () Int)
(assert ( and ( <= ( - 1 ) Nl2arg11 ) ( <= Nl2arg11 1 ) ( <= ( - 1 ) Nl2arg21 ) ( <= Nl2arg21 1 ) ( <= ( - 1 ) Nl2arg31 ) ( <= Nl2arg31 1 ) ( <= ( - 1 ) Nl2arg12 ) ( <= Nl2arg12 1 ) ( <= ( - 1 ) Nl2arg22 ) ( <= Nl2arg22 1 ) ( <= ( - 1 ) Nl2arg32 ) ( <= Nl2arg32 1 ) ( <= ( - 1 ) Nl2arg13 ) ( <= Nl2arg13 1 ) ( <= ( - 1 ) Nl2arg23 ) ( <= Nl2arg23 1 ) ( <= ( - 1 ) Nl2arg33 ) ( <= Nl2arg33 1 ) ))
(assert ( or ( and ( >= lam0n0 0 ) ( >= lam0n1 0 ) ( >= lam0n2 0 ) ( >= lam0n3 0 ) ( >= lam0n5 0 ) ( >= lam0n6 0 ) ( >= lam0n7 0 ) ( > ( + ( * 1 lam0n0 ) ( * 1 lam0n1 ) ( * ( - 2 ) lam0n2 ) ( * 709 lam0n3 ) ( * Nl2CT1 lam0n5 ) ( * Nl2CT2 lam0n6 ) ( * Nl2CT3 lam0n7 ) ( - 1 ) ) 0 ) ( = ( + ( * ( - 1 ) lam0n0 ) ( * ( - 1 ) lam0n3 ) ( * 1 lam0n4 ) ( * Nl2arg11 lam0n5 ) ( * Nl2arg12 lam0n6 ) ( * Nl2arg13 lam0n7 ) ) 0 ) ( = ( + ( * 1 lam0n2 ) ( * 1 lam0n3 ) ( * Nl2arg21 lam0n5 ) ( * Nl2arg22 lam0n6 ) ( * Nl2arg23 lam0n7 ) ) 0 ) ( = ( + ( * ( - 1 ) lam0n1 ) ( * 1 lam0n2 ) ( * ( - 1 ) lam0n4 ) ( * Nl2arg31 lam0n5 ) ( * Nl2arg32 lam0n6 ) ( * Nl2arg33 lam0n7 ) ) 0 ) ) ( and ( >= lam1n0 0 ) ( >= lam1n1 0 ) ( >= lam1n2 0 ) ( >= lam1n3 0 ) ( >= lam1n5 0 ) ( >= lam1n6 0 ) ( >= lam1n7 0 ) ( > ( + ( * 1 lam1n0 ) ( * 1 lam1n1 ) ( * ( - 2 ) lam1n2 ) ( * 709 lam1n3 ) ( * Nl2CT1 lam1n5 ) ( * Nl2CT2 lam1n6 ) ( * Nl2CT3 lam1n7 ) ( - 1 ( + ( + ( + Nl2CT1 ( * Nl2arg11 0 ) ) ( * Nl2arg21 ( - 1 ) ) ) ( * Nl2arg31 0 ) ) ) ) 0 ) ( = ( + ( * ( - 1 ) lam1n0 ) ( * ( - 1 ) lam1n3 ) ( * 1 lam1n4 ) ( * Nl2arg11 lam1n5 ) ( * Nl2arg12 lam1n6 ) ( * Nl2arg13 lam1n7 ) ( - ( + ( + 0 ( * Nl2arg11 1 ) ) ( * Nl2arg31 1 ) ) ) ) 0 ) ( = ( + ( * 1 lam1n2 ) ( * 1 lam1n3 ) ( * Nl2arg21 lam1n5 ) ( * Nl2arg22 lam1n6 ) ( * Nl2arg23 lam1n7 ) ( - ( + ( + ( + 0 ( * Nl2arg11 1 ) ) ( * Nl2arg21 1 ) ) ( * Nl2arg31 1 ) ) ) ) 0 ) ( = ( + ( * ( - 1 ) lam1n1 ) ( * 1 lam1n2 ) ( * ( - 1 ) lam1n4 ) ( * Nl2arg31 lam1n5 ) ( * Nl2arg32 lam1n6 ) ( * Nl2arg33 lam1n7 ) ) 0 ) ) ))
(assert ( or ( and ( >= lam0n0 0 ) ( >= lam0n1 0 ) ( >= lam0n2 0 ) ( >= lam0n3 0 ) ( >= lam0n5 0 ) ( >= lam0n6 0 ) ( >= lam0n7 0 ) ( > ( + ( * 1 lam0n0 ) ( * 1 lam0n1 ) ( * ( - 2 ) lam0n2 ) ( * 709 lam0n3 ) ( * Nl2CT1 lam0n5 ) ( * Nl2CT2 lam0n6 ) ( * Nl2CT3 lam0n7 ) ( - 1 ) ) 0 ) ( = ( + ( * ( - 1 ) lam0n0 ) ( * ( - 1 ) lam0n3 ) ( * 1 lam0n4 ) ( * Nl2arg11 lam0n5 ) ( * Nl2arg12 lam0n6 ) ( * Nl2arg13 lam0n7 ) ) 0 ) ( = ( + ( * 1 lam0n2 ) ( * 1 lam0n3 ) ( * Nl2arg21 lam0n5 ) ( * Nl2arg22 lam0n6 ) ( * Nl2arg23 lam0n7 ) ) 0 ) ( = ( + ( * ( - 1 ) lam0n1 ) ( * 1 lam0n2 ) ( * ( - 1 ) lam0n4 ) ( * Nl2arg31 lam0n5 ) ( * Nl2arg32 lam0n6 ) ( * Nl2arg33 lam0n7 ) ) 0 ) ) ( and ( >= lam2n0 0 ) ( >= lam2n1 0 ) ( >= lam2n2 0 ) ( >= lam2n3 0 ) ( >= lam2n5 0 ) ( >= lam2n6 0 ) ( >= lam2n7 0 ) ( > ( + ( * 1 lam2n0 ) ( * 1 lam2n1 ) ( * ( - 2 ) lam2n2 ) ( * 709 lam2n3 ) ( * Nl2CT1 lam2n5 ) ( * Nl2CT2 lam2n6 ) ( * Nl2CT3 lam2n7 ) ( - 1 ( + ( + ( + Nl2CT2 ( * Nl2arg12 0 ) ) ( * Nl2arg22 ( - 1 ) ) ) ( * Nl2arg32 0 ) ) ) ) 0 ) ( = ( + ( * ( - 1 ) lam2n0 ) ( * ( - 1 ) lam2n3 ) ( * 1 lam2n4 ) ( * Nl2arg11 lam2n5 ) ( * Nl2arg12 lam2n6 ) ( * Nl2arg13 lam2n7 ) ( - ( + ( + 0 ( * Nl2arg12 1 ) ) ( * Nl2arg32 1 ) ) ) ) 0 ) ( = ( + ( * 1 lam2n2 ) ( * 1 lam2n3 ) ( * Nl2arg21 lam2n5 ) ( * Nl2arg22 lam2n6 ) ( * Nl2arg23 lam2n7 ) ( - ( + ( + ( + 0 ( * Nl2arg12 1 ) ) ( * Nl2arg22 1 ) ) ( * Nl2arg32 1 ) ) ) ) 0 ) ( = ( + ( * ( - 1 ) lam2n1 ) ( * 1 lam2n2 ) ( * ( - 1 ) lam2n4 ) ( * Nl2arg31 lam2n5 ) ( * Nl2arg32 lam2n6 ) ( * Nl2arg33 lam2n7 ) ) 0 ) ) ))
(assert ( or ( and ( >= lam0n0 0 ) ( >= lam0n1 0 ) ( >= lam0n2 0 ) ( >= lam0n3 0 ) ( >= lam0n5 0 ) ( >= lam0n6 0 ) ( >= lam0n7 0 ) ( > ( + ( * 1 lam0n0 ) ( * 1 lam0n1 ) ( * ( - 2 ) lam0n2 ) ( * 709 lam0n3 ) ( * Nl2CT1 lam0n5 ) ( * Nl2CT2 lam0n6 ) ( * Nl2CT3 lam0n7 ) ( - 1 ) ) 0 ) ( = ( + ( * ( - 1 ) lam0n0 ) ( * ( - 1 ) lam0n3 ) ( * 1 lam0n4 ) ( * Nl2arg11 lam0n5 ) ( * Nl2arg12 lam0n6 ) ( * Nl2arg13 lam0n7 ) ) 0 ) ( = ( + ( * 1 lam0n2 ) ( * 1 lam0n3 ) ( * Nl2arg21 lam0n5 ) ( * Nl2arg22 lam0n6 ) ( * Nl2arg23 lam0n7 ) ) 0 ) ( = ( + ( * ( - 1 ) lam0n1 ) ( * 1 lam0n2 ) ( * ( - 1 ) lam0n4 ) ( * Nl2arg31 lam0n5 ) ( * Nl2arg32 lam0n6 ) ( * Nl2arg33 lam0n7 ) ) 0 ) ) ( and ( >= lam3n0 0 ) ( >= lam3n1 0 ) ( >= lam3n2 0 ) ( >= lam3n3 0 ) ( >= lam3n5 0 ) ( >= lam3n6 0 ) ( >= lam3n7 0 ) ( > ( + ( * 1 lam3n0 ) ( * 1 lam3n1 ) ( * ( - 2 ) lam3n2 ) ( * 709 lam3n3 ) ( * Nl2CT1 lam3n5 ) ( * Nl2CT2 lam3n6 ) ( * Nl2CT3 lam3n7 ) ( - 1 ( + ( + ( + Nl2CT3 ( * Nl2arg13 0 ) ) ( * Nl2arg23 ( - 1 ) ) ) ( * Nl2arg33 0 ) ) ) ) 0 ) ( = ( + ( * ( - 1 ) lam3n0 ) ( * ( - 1 ) lam3n3 ) ( * 1 lam3n4 ) ( * Nl2arg11 lam3n5 ) ( * Nl2arg12 lam3n6 ) ( * Nl2arg13 lam3n7 ) ( - ( + ( + 0 ( * Nl2arg13 1 ) ) ( * Nl2arg33 1 ) ) ) ) 0 ) ( = ( + ( * 1 lam3n2 ) ( * 1 lam3n3 ) ( * Nl2arg21 lam3n5 ) ( * Nl2arg22 lam3n6 ) ( * Nl2arg23 lam3n7 ) ( - ( + ( + ( + 0 ( * Nl2arg13 1 ) ) ( * Nl2arg23 1 ) ) ( * Nl2arg33 1 ) ) ) ) 0 ) ( = ( + ( * ( - 1 ) lam3n1 ) ( * 1 lam3n2 ) ( * ( - 1 ) lam3n4 ) ( * Nl2arg31 lam3n5 ) ( * Nl2arg32 lam3n6 ) ( * Nl2arg33 lam3n7 ) ) 0 ) ) ))
(assert ( or ( and ( >= lam4n0 0 ) ( >= lam4n1 0 ) ( >= lam4n2 0 ) ( >= lam4n4 0 ) ( >= lam4n5 0 ) ( >= lam4n6 0 ) ( > ( + ( * 1 lam4n0 ) ( * 1 lam4n1 ) ( * 3 lam4n2 ) ( * Nl2CT1 lam4n4 ) ( * Nl2CT2 lam4n5 ) ( * Nl2CT3 lam4n6 ) ( - 1 ) ) 0 ) ( = ( + ( * ( - 1 ) lam4n0 ) ( * 1 lam4n3 ) ( * Nl2arg11 lam4n4 ) ( * Nl2arg12 lam4n5 ) ( * Nl2arg13 lam4n6 ) ) 0 ) ( = ( + ( * ( - 1 ) lam4n2 ) ( * Nl2arg21 lam4n4 ) ( * Nl2arg22 lam4n5 ) ( * Nl2arg23 lam4n6 ) ) 0 ) ( = ( + ( * ( - 1 ) lam4n1 ) ( * ( - 1 ) lam4n2 ) ( * ( - 1 ) lam4n3 ) ( * Nl2arg31 lam4n4 ) ( * Nl2arg32 lam4n5 ) ( * Nl2arg33 lam4n6 ) ) 0 ) ) ( and ( >= lam5n0 0 ) ( >= lam5n1 0 ) ( >= lam5n2 0 ) ( >= lam5n4 0 ) ( >= lam5n5 0 ) ( >= lam5n6 0 ) ( > ( + ( * 1 lam5n0 ) ( * 1 lam5n1 ) ( * 3 lam5n2 ) ( * Nl2CT1 lam5n4 ) ( * Nl2CT2 lam5n5 ) ( * Nl2CT3 lam5n6 ) ( - 1 ( + ( + ( + Nl2CT1 ( * Nl2arg11 0 ) ) ( * Nl2arg21 ( - 1 ) ) ) ( * Nl2arg31 0 ) ) ) ) 0 ) ( = ( + ( * ( - 1 ) lam5n0 ) ( * 1 lam5n3 ) ( * Nl2arg11 lam5n4 ) ( * Nl2arg12 lam5n5 ) ( * Nl2arg13 lam5n6 ) ( - ( + ( + 0 ( * Nl2arg11 1 ) ) ( * Nl2arg31 1 ) ) ) ) 0 ) ( = ( + ( * ( - 1 ) lam5n2 ) ( * Nl2arg21 lam5n4 ) ( * Nl2arg22 lam5n5 ) ( * Nl2arg23 lam5n6 ) ( - ( + ( + ( + 0 ( * Nl2arg11 1 ) ) ( * Nl2arg21 1 ) ) ( * Nl2arg31 1 ) ) ) ) 0 ) ( = ( + ( * ( - 1 ) lam5n1 ) ( * ( - 1 ) lam5n2 ) ( * ( - 1 ) lam5n3 ) ( * Nl2arg31 lam5n4 ) ( * Nl2arg32 lam5n5 ) ( * Nl2arg33 lam5n6 ) ) 0 ) ) ))
(assert ( or ( and ( >= lam4n0 0 ) ( >= lam4n1 0 ) ( >= lam4n2 0 ) ( >= lam4n4 0 ) ( >= lam4n5 0 ) ( >= lam4n6 0 ) ( > ( + ( * 1 lam4n0 ) ( * 1 lam4n1 ) ( * 3 lam4n2 ) ( * Nl2CT1 lam4n4 ) ( * Nl2CT2 lam4n5 ) ( * Nl2CT3 lam4n6 ) ( - 1 ) ) 0 ) ( = ( + ( * ( - 1 ) lam4n0 ) ( * 1 lam4n3 ) ( * Nl2arg11 lam4n4 ) ( * Nl2arg12 lam4n5 ) ( * Nl2arg13 lam4n6 ) ) 0 ) ( = ( + ( * ( - 1 ) lam4n2 ) ( * Nl2arg21 lam4n4 ) ( * Nl2arg22 lam4n5 ) ( * Nl2arg23 lam4n6 ) ) 0 ) ( = ( + ( * ( - 1 ) lam4n1 ) ( * ( - 1 ) lam4n2 ) ( * ( - 1 ) lam4n3 ) ( * Nl2arg31 lam4n4 ) ( * Nl2arg32 lam4n5 ) ( * Nl2arg33 lam4n6 ) ) 0 ) ) ( and ( >= lam6n0 0 ) ( >= lam6n1 0 ) ( >= lam6n2 0 ) ( >= lam6n4 0 ) ( >= lam6n5 0 ) ( >= lam6n6 0 ) ( > ( + ( * 1 lam6n0 ) ( * 1 lam6n1 ) ( * 3 lam6n2 ) ( * Nl2CT1 lam6n4 ) ( * Nl2CT2 lam6n5 ) ( * Nl2CT3 lam6n6 ) ( - 1 ( + ( + ( + Nl2CT2 ( * Nl2arg12 0 ) ) ( * Nl2arg22 ( - 1 ) ) ) ( * Nl2arg32 0 ) ) ) ) 0 ) ( = ( + ( * ( - 1 ) lam6n0 ) ( * 1 lam6n3 ) ( * Nl2arg11 lam6n4 ) ( * Nl2arg12 lam6n5 ) ( * Nl2arg13 lam6n6 ) ( - ( + ( + 0 ( * Nl2arg12 1 ) ) ( * Nl2arg32 1 ) ) ) ) 0 ) ( = ( + ( * ( - 1 ) lam6n2 ) ( * Nl2arg21 lam6n4 ) ( * Nl2arg22 lam6n5 ) ( * Nl2arg23 lam6n6 ) ( - ( + ( + ( + 0 ( * Nl2arg12 1 ) ) ( * Nl2arg22 1 ) ) ( * Nl2arg32 1 ) ) ) ) 0 ) ( = ( + ( * ( - 1 ) lam6n1 ) ( * ( - 1 ) lam6n2 ) ( * ( - 1 ) lam6n3 ) ( * Nl2arg31 lam6n4 ) ( * Nl2arg32 lam6n5 ) ( * Nl2arg33 lam6n6 ) ) 0 ) ) ))
(assert ( or ( and ( >= lam4n0 0 ) ( >= lam4n1 0 ) ( >= lam4n2 0 ) ( >= lam4n4 0 ) ( >= lam4n5 0 ) ( >= lam4n6 0 ) ( > ( + ( * 1 lam4n0 ) ( * 1 lam4n1 ) ( * 3 lam4n2 ) ( * Nl2CT1 lam4n4 ) ( * Nl2CT2 lam4n5 ) ( * Nl2CT3 lam4n6 ) ( - 1 ) ) 0 ) ( = ( + ( * ( - 1 ) lam4n0 ) ( * 1 lam4n3 ) ( * Nl2arg11 lam4n4 ) ( * Nl2arg12 lam4n5 ) ( * Nl2arg13 lam4n6 ) ) 0 ) ( = ( + ( * ( - 1 ) lam4n2 ) ( * Nl2arg21 lam4n4 ) ( * Nl2arg22 lam4n5 ) ( * Nl2arg23 lam4n6 ) ) 0 ) ( = ( + ( * ( - 1 ) lam4n1 ) ( * ( - 1 ) lam4n2 ) ( * ( - 1 ) lam4n3 ) ( * Nl2arg31 lam4n4 ) ( * Nl2arg32 lam4n5 ) ( * Nl2arg33 lam4n6 ) ) 0 ) ) ( and ( >= lam7n0 0 ) ( >= lam7n1 0 ) ( >= lam7n2 0 ) ( >= lam7n4 0 ) ( >= lam7n5 0 ) ( >= lam7n6 0 ) ( > ( + ( * 1 lam7n0 ) ( * 1 lam7n1 ) ( * 3 lam7n2 ) ( * Nl2CT1 lam7n4 ) ( * Nl2CT2 lam7n5 ) ( * Nl2CT3 lam7n6 ) ( - 1 ( + ( + ( + Nl2CT3 ( * Nl2arg13 0 ) ) ( * Nl2arg23 ( - 1 ) ) ) ( * Nl2arg33 0 ) ) ) ) 0 ) ( = ( + ( * ( - 1 ) lam7n0 ) ( * 1 lam7n3 ) ( * Nl2arg11 lam7n4 ) ( * Nl2arg12 lam7n5 ) ( * Nl2arg13 lam7n6 ) ( - ( + ( + 0 ( * Nl2arg13 1 ) ) ( * Nl2arg33 1 ) ) ) ) 0 ) ( = ( + ( * ( - 1 ) lam7n2 ) ( * Nl2arg21 lam7n4 ) ( * Nl2arg22 lam7n5 ) ( * Nl2arg23 lam7n6 ) ( - ( + ( + ( + 0 ( * Nl2arg13 1 ) ) ( * Nl2arg23 1 ) ) ( * Nl2arg33 1 ) ) ) ) 0 ) ( = ( + ( * ( - 1 ) lam7n1 ) ( * ( - 1 ) lam7n2 ) ( * ( - 1 ) lam7n3 ) ( * Nl2arg31 lam7n4 ) ( * Nl2arg32 lam7n5 ) ( * Nl2arg33 lam7n6 ) ) 0 ) ) ))
(assert ( or ( and ( <= ( + 1 ( * ( - 1 ) undef13 ) ) 0 ) ( not ( <= ( + ( - 2 ) undef4 ) 0 ) ) ( = ( + ( - 1 ) undef14 ) 0 ) ( <= ( + ( + ( + ( + Nl2CT1 ( * Nl2arg11 0 ) ) ( * Nl2arg21 0 ) ) ( * Nl2arg31 0 ) ) ( * ( + ( + 0 ( * Nl2arg11 1 ) ) ( * Nl2arg31 1 ) ) undef4 ) ) 0 ) ( <= ( + ( + ( + ( + Nl2CT2 ( * Nl2arg12 0 ) ) ( * Nl2arg22 0 ) ) ( * Nl2arg32 0 ) ) ( * ( + ( + 0 ( * Nl2arg12 1 ) ) ( * Nl2arg32 1 ) ) undef4 ) ) 0 ) ( <= ( + ( + ( + ( + Nl2CT3 ( * Nl2arg13 0 ) ) ( * Nl2arg23 0 ) ) ( * Nl2arg33 0 ) ) ( * ( + ( + 0 ( * Nl2arg13 1 ) ) ( * Nl2arg33 1 ) ) undef4 ) ) 0 ) ) ( and ( <= ( * ( - 1 ) undef8 ) 0 ) ( not ( <= undef7 0 ) ) ( <= ( + 1 ( * ( - 1 ) undef13 ) ) 0 ) ( <= ( + 2 ( * ( - 1 ) undef14 ) ) 0 ) ( not ( <= ( + ( - 2 ) undef7 undef8 ) 0 ) ) ( <= ( + ( + ( + ( + Nl2CT1 ( * Nl2arg11 0 ) ) ( * Nl2arg21 0 ) ) ( * Nl2arg31 0 ) ) ( * ( + ( + 0 ( * Nl2arg11 1 ) ) ( * Nl2arg31 1 ) ) undef7 ) ( * ( + 0 ( * Nl2arg21 1 ) ) undef8 ) ) 0 ) ( <= ( + ( + ( + ( + Nl2CT2 ( * Nl2arg12 0 ) ) ( * Nl2arg22 0 ) ) ( * Nl2arg32 0 ) ) ( * ( + ( + 0 ( * Nl2arg12 1 ) ) ( * Nl2arg32 1 ) ) undef7 ) ( * ( + 0 ( * Nl2arg22 1 ) ) undef8 ) ) 0 ) ( <= ( + ( + ( + ( + Nl2CT3 ( * Nl2arg13 0 ) ) ( * Nl2arg23 0 ) ) ( * Nl2arg33 0 ) ) ( * ( + ( + 0 ( * Nl2arg13 1 ) ) ( * Nl2arg33 1 ) ) undef7 ) ( * ( + 0 ( * Nl2arg23 1 ) ) undef8 ) ) 0 ) ) ))
(assert ( or ( and ( and ( and ( >= lam17n0 0 ) ( >= lam17n1 0 ) ( >= lam17n2 0 ) ( >= lam17n3 0 ) ( >= lam17n5 0 ) ( >= lam17n6 0 ) ( >= lam17n7 0 ) ( > ( + ( * 1 lam17n0 ) ( * 1 lam17n1 ) ( * ( - 2 ) lam17n2 ) ( * 709 lam17n3 ) ( * Nl2CT1 lam17n5 ) ( * Nl2CT2 lam17n6 ) ( * Nl2CT3 lam17n7 ) ( - 1 ( - ( + ( + ( + RFN1_CT ( * RFN1_arg1 0 ) ) ( * RFN1_arg2 ( - 1 ) ) ) ( * RFN1_arg3 0 ) ) RFN1_CT ) ) ) 0 ) ( = ( + ( * ( - 1 ) lam17n0 ) ( * ( - 1 ) lam17n3 ) ( * 1 lam17n4 ) ( * Nl2arg11 lam17n5 ) ( * Nl2arg12 lam17n6 ) ( * Nl2arg13 lam17n7 ) ( - ( - ( + ( + 0 ( * RFN1_arg1 1 ) ) ( * RFN1_arg3 1 ) ) RFN1_arg1 ) ) ) 0 ) ( = ( + ( * 1 lam17n2 ) ( * 1 lam17n3 ) ( * Nl2arg21 lam17n5 ) ( * Nl2arg22 lam17n6 ) ( * Nl2arg23 lam17n7 ) ( - ( - ( + ( + ( + 0 ( * RFN1_arg1 1 ) ) ( * RFN1_arg2 1 ) ) ( * RFN1_arg3 1 ) ) RFN1_arg2 ) ) ) 0 ) ( = ( + ( * ( - 1 ) lam17n1 ) ( * 1 lam17n2 ) ( * ( - 1 ) lam17n4 ) ( * Nl2arg31 lam17n5 ) ( * Nl2arg32 lam17n6 ) ( * Nl2arg33 lam17n7 ) ( - ( - RFN1_arg3 ) ) ) 0 ) ) ( and ( >= lam21n0 0 ) ( >= lam21n1 0 ) ( >= lam21n2 0 ) ( >= lam21n4 0 ) ( >= lam21n5 0 ) ( >= lam21n6 0 ) ( > ( + ( * 1 lam21n0 ) ( * 1 lam21n1 ) ( * 3 lam21n2 ) ( * Nl2CT1 lam21n4 ) ( * Nl2CT2 lam21n5 ) ( * Nl2CT3 lam21n6 ) ( - 1 ( - ( + ( + ( + RFN1_CT ( * RFN1_arg1 0 ) ) ( * RFN1_arg2 ( - 1 ) ) ) ( * RFN1_arg3 0 ) ) RFN1_CT ) ) ) 0 ) ( = ( + ( * ( - 1 ) lam21n0 ) ( * 1 lam21n3 ) ( * Nl2arg11 lam21n4 ) ( * Nl2arg12 lam21n5 ) ( * Nl2arg13 lam21n6 ) ( - ( - ( + ( + 0 ( * RFN1_arg1 1 ) ) ( * RFN1_arg3 1 ) ) RFN1_arg1 ) ) ) 0 ) ( = ( + ( * ( - 1 ) lam21n2 ) ( * Nl2arg21 lam21n4 ) ( * Nl2arg22 lam21n5 ) ( * Nl2arg23 lam21n6 ) ( - ( - ( + ( + ( + 0 ( * RFN1_arg1 1 ) ) ( * RFN1_arg2 1 ) ) ( * RFN1_arg3 1 ) ) RFN1_arg2 ) ) ) 0 ) ( = ( + ( * ( - 1 ) lam21n1 ) ( * ( - 1 ) lam21n2 ) ( * ( - 1 ) lam21n3 ) ( * Nl2arg31 lam21n4 ) ( * Nl2arg32 lam21n5 ) ( * Nl2arg33 lam21n6 ) ( - ( - RFN1_arg3 ) ) ) 0 ) ) ) ( or ( and ( and ( >= lam15n0 0 ) ( >= lam15n1 0 ) ( >= lam15n2 0 ) ( >= lam15n3 0 ) ( >= lam15n5 0 ) ( >= lam15n6 0 ) ( >= lam15n7 0 ) ( > ( + ( * 1 lam15n0 ) ( * 1 lam15n1 ) ( * ( - 2 ) lam15n2 ) ( * 709 lam15n3 ) ( * Nl2CT1 lam15n5 ) ( * Nl2CT2 lam15n6 ) ( * Nl2CT3 lam15n7 ) ( - 1 ( - RFN1_CT ) ) ) 0 ) ( = ( + ( * ( - 1 ) lam15n0 ) ( * ( - 1 ) lam15n3 ) ( * 1 lam15n4 ) ( * Nl2arg11 lam15n5 ) ( * Nl2arg12 lam15n6 ) ( * Nl2arg13 lam15n7 ) ( - ( - RFN1_arg1 ) ) ) 0 ) ( = ( + ( * 1 lam15n2 ) ( * 1 lam15n3 ) ( * Nl2arg21 lam15n5 ) ( * Nl2arg22 lam15n6 ) ( * Nl2arg23 lam15n7 ) ( - ( - RFN1_arg2 ) ) ) 0 ) ( = ( + ( * ( - 1 ) lam15n1 ) ( * 1 lam15n2 ) ( * ( - 1 ) lam15n4 ) ( * Nl2arg31 lam15n5 ) ( * Nl2arg32 lam15n6 ) ( * Nl2arg33 lam15n7 ) ( - ( - RFN1_arg3 ) ) ) 0 ) ) ( and ( >= lam16n0 0 ) ( >= lam16n1 0 ) ( >= lam16n2 0 ) ( >= lam16n3 0 ) ( >= lam16n5 0 ) ( >= lam16n6 0 ) ( >= lam16n7 0 ) ( > ( + ( * 1 lam16n0 ) ( * 1 lam16n1 ) ( * ( - 2 ) lam16n2 ) ( * 709 lam16n3 ) ( * Nl2CT1 lam16n5 ) ( * Nl2CT2 lam16n6 ) ( * Nl2CT3 lam16n7 ) ( - 1 ( + ( - ( + ( + ( + RFN1_CT ( * RFN1_arg1 0 ) ) ( * RFN1_arg2 ( - 1 ) ) ) ( * RFN1_arg3 0 ) ) RFN1_CT ) 1 ) ) ) 0 ) ( = ( + ( * ( - 1 ) lam16n0 ) ( * ( - 1 ) lam16n3 ) ( * 1 lam16n4 ) ( * Nl2arg11 lam16n5 ) ( * Nl2arg12 lam16n6 ) ( * Nl2arg13 lam16n7 ) ( - ( - ( + ( + 0 ( * RFN1_arg1 1 ) ) ( * RFN1_arg3 1 ) ) RFN1_arg1 ) ) ) 0 ) ( = ( + ( * 1 lam16n2 ) ( * 1 lam16n3 ) ( * Nl2arg21 lam16n5 ) ( * Nl2arg22 lam16n6 ) ( * Nl2arg23 lam16n7 ) ( - ( - ( + ( + ( + 0 ( * RFN1_arg1 1 ) ) ( * RFN1_arg2 1 ) ) ( * RFN1_arg3 1 ) ) RFN1_arg2 ) ) ) 0 ) ( = ( + ( * ( - 1 ) lam16n1 ) ( * 1 lam16n2 ) ( * ( - 1 ) lam16n4 ) ( * Nl2arg31 lam16n5 ) ( * Nl2arg32 lam16n6 ) ( * Nl2arg33 lam16n7 ) ( - ( - RFN1_arg3 ) ) ) 0 ) ) ) ( and ( and ( >= lam19n0 0 ) ( >= lam19n1 0 ) ( >= lam19n2 0 ) ( >= lam19n4 0 ) ( >= lam19n5 0 ) ( >= lam19n6 0 ) ( > ( + ( * 1 lam19n0 ) ( * 1 lam19n1 ) ( * 3 lam19n2 ) ( * Nl2CT1 lam19n4 ) ( * Nl2CT2 lam19n5 ) ( * Nl2CT3 lam19n6 ) ( - 1 ( - RFN1_CT ) ) ) 0 ) ( = ( + ( * ( - 1 ) lam19n0 ) ( * 1 lam19n3 ) ( * Nl2arg11 lam19n4 ) ( * Nl2arg12 lam19n5 ) ( * Nl2arg13 lam19n6 ) ( - ( - RFN1_arg1 ) ) ) 0 ) ( = ( + ( * ( - 1 ) lam19n2 ) ( * Nl2arg21 lam19n4 ) ( * Nl2arg22 lam19n5 ) ( * Nl2arg23 lam19n6 ) ( - ( - RFN1_arg2 ) ) ) 0 ) ( = ( + ( * ( - 1 ) lam19n1 ) ( * ( - 1 ) lam19n2 ) ( * ( - 1 ) lam19n3 ) ( * Nl2arg31 lam19n4 ) ( * Nl2arg32 lam19n5 ) ( * Nl2arg33 lam19n6 ) ( - ( - RFN1_arg3 ) ) ) 0 ) ) ( and ( >= lam20n0 0 ) ( >= lam20n1 0 ) ( >= lam20n2 0 ) ( >= lam20n4 0 ) ( >= lam20n5 0 ) ( >= lam20n6 0 ) ( > ( + ( * 1 lam20n0 ) ( * 1 lam20n1 ) ( * 3 lam20n2 ) ( * Nl2CT1 lam20n4 ) ( * Nl2CT2 lam20n5 ) ( * Nl2CT3 lam20n6 ) ( - 1 ( + ( - ( + ( + ( + RFN1_CT ( * RFN1_arg1 0 ) ) ( * RFN1_arg2 ( - 1 ) ) ) ( * RFN1_arg3 0 ) ) RFN1_CT ) 1 ) ) ) 0 ) ( = ( + ( * ( - 1 ) lam20n0 ) ( * 1 lam20n3 ) ( * Nl2arg11 lam20n4 ) ( * Nl2arg12 lam20n5 ) ( * Nl2arg13 lam20n6 ) ( - ( - ( + ( + 0 ( * RFN1_arg1 1 ) ) ( * RFN1_arg3 1 ) ) RFN1_arg1 ) ) ) 0 ) ( = ( + ( * ( - 1 ) lam20n2 ) ( * Nl2arg21 lam20n4 ) ( * Nl2arg22 lam20n5 ) ( * Nl2arg23 lam20n6 ) ( - ( - ( + ( + ( + 0 ( * RFN1_arg1 1 ) ) ( * RFN1_arg2 1 ) ) ( * RFN1_arg3 1 ) ) RFN1_arg2 ) ) ) 0 ) ( = ( + ( * ( - 1 ) lam20n1 ) ( * ( - 1 ) lam20n2 ) ( * ( - 1 ) lam20n3 ) ( * Nl2arg31 lam20n4 ) ( * Nl2arg32 lam20n5 ) ( * Nl2arg33 lam20n6 ) ( - ( - RFN1_arg3 ) ) ) 0 ) ) ) ) ) ( or ( and ( >= lam14n0 0 ) ( >= lam14n1 0 ) ( >= lam14n2 0 ) ( >= lam14n3 0 ) ( >= lam14n5 0 ) ( >= lam14n6 0 ) ( >= lam14n7 0 ) ( > ( + ( * 1 lam14n0 ) ( * 1 lam14n1 ) ( * ( - 2 ) lam14n2 ) ( * 709 lam14n3 ) ( * Nl2CT1 lam14n5 ) ( * Nl2CT2 lam14n6 ) ( * Nl2CT3 lam14n7 ) ( - 1 ) ) 0 ) ( = ( + ( * ( - 1 ) lam14n0 ) ( * ( - 1 ) lam14n3 ) ( * 1 lam14n4 ) ( * Nl2arg11 lam14n5 ) ( * Nl2arg12 lam14n6 ) ( * Nl2arg13 lam14n7 ) ) 0 ) ( = ( + ( * 1 lam14n2 ) ( * 1 lam14n3 ) ( * Nl2arg21 lam14n5 ) ( * Nl2arg22 lam14n6 ) ( * Nl2arg23 lam14n7 ) ) 0 ) ( = ( + ( * ( - 1 ) lam14n1 ) ( * 1 lam14n2 ) ( * ( - 1 ) lam14n4 ) ( * Nl2arg31 lam14n5 ) ( * Nl2arg32 lam14n6 ) ( * Nl2arg33 lam14n7 ) ) 0 ) ) ( and ( >= lam18n0 0 ) ( >= lam18n1 0 ) ( >= lam18n2 0 ) ( >= lam18n4 0 ) ( >= lam18n5 0 ) ( >= lam18n6 0 ) ( > ( + ( * 1 lam18n0 ) ( * 1 lam18n1 ) ( * 3 lam18n2 ) ( * Nl2CT1 lam18n4 ) ( * Nl2CT2 lam18n5 ) ( * Nl2CT3 lam18n6 ) ( - 1 ) ) 0 ) ( = ( + ( * ( - 1 ) lam18n0 ) ( * 1 lam18n3 ) ( * Nl2arg11 lam18n4 ) ( * Nl2arg12 lam18n5 ) ( * Nl2arg13 lam18n6 ) ) 0 ) ( = ( + ( * ( - 1 ) lam18n2 ) ( * Nl2arg21 lam18n4 ) ( * Nl2arg22 lam18n5 ) ( * Nl2arg23 lam18n6 ) ) 0 ) ( = ( + ( * ( - 1 ) lam18n1 ) ( * ( - 1 ) lam18n2 ) ( * ( - 1 ) lam18n3 ) ( * Nl2arg31 lam18n4 ) ( * Nl2arg32 lam18n5 ) ( * Nl2arg33 lam18n6 ) ) 0 ) ) ) ))
(check-sat)
(exit)
